3 7 6 14 9 8 5 4 10 1 0 12 11 2 13
1 11 0 5 8 13 3 10 9 2 12 6 4 7 14
7 3 8 11 0 4 9 13 1 10 6 5 14 12 2
6 11 5 13 3 2 1 4 9 12 8 0 14 7 10
1 11 6 5 8 7 12 9 2 14 13 3 0 4 10
11 2 12 1 14 0 6 9 3 13 7 10 4 5 8
14 7 11 0 12 8 9 10 3 13 4 1 2 6 5
7 4 13 5 14 11 2 12 6 1 0 10 9 3 8
7 4 14 10 3 0 13 8 1 2 6 12 11 9 5
2 12 10 3 6 5 14 9 13 4 0 11 7 8 1
11 9 3 7 6 4 0 2 5 1 10 8 13 12 14
0 4 1 9 2 11 13 10 7 6 8 12 14 3 5
6 0 4 10 2 14 9 13 11 12 1 8 5 3 7
5 10 13 2 7 4 8 6 9 0 12 11 1 14 3
11 2 0 4 14 5 9 10 6 12 8 1 7 3 13